
;this file is automatically generated: Wed May 15 15:39:42 IST 2019

;declarations generated

(declare-fun type_80b186aa_708c_4eae_b503_320f9b499f24_C ( Int) Bool)
(declare-fun oclExcludes ( Int Int) Bool)
(declare-fun type_92d8b135_851e_46e3_8e99_0c2d562de001_D ( Int) Bool)
(declare-fun oclSelect ( Int Bool) Int)
(declare-fun Cardinality ( Int) Int)
(declare-fun type_4458b037_16d1_425e_80f4_9a7d74b67043_A ( Int) Bool)
(declare-fun obj_47493956_b3c1_434b_b090_1ccaf0e75369 ( Int) Int)
(declare-fun container_ ( Int) Int)
(declare-fun oclIncludes ( Int Int) Bool)
(declare-fun aux1 () Int)
(declare-fun aux0 () Int)
(declare-fun aux3 () Int)
(declare-fun aux2 () Int)
(declare-fun aux4 () Int)
(declare-fun type_66b391d0_bc8b_4d7b_b23e_bd379382a576_B ( Int) Bool)
(declare-fun weight4 () Int)
(declare-fun weight3 () Int)
(declare-fun ObjAt ( Int Int) Int)
(declare-fun weight2 () Int)
(declare-fun weight1 () Int)
(declare-fun weight0 () Int)

;formula(s) generated
(assert (and (>= aux0 0) (<= aux0 1)))
(assert (or (or (forall (( b Int )) (=> (and ( type_66b391d0_bc8b_4d7b_b23e_bd379382a576_B b )  ( type_4458b037_16d1_425e_80f4_9a7d74b67043_A b ) ) (forall (( c Int )) (=> (and ( type_80b186aa_708c_4eae_b503_320f9b499f24_C c )  ( type_4458b037_16d1_425e_80f4_9a7d74b67043_A c ) ) (not (= ( obj_47493956_b3c1_434b_b090_1ccaf0e75369 b )  ( obj_47493956_b3c1_434b_b090_1ccaf0e75369 c ) ) ))))) (and (= aux0 1) true)) (and (= aux0 0) false)))
(assert (and (=> (= aux0 0) (= weight0 1)) (=> (= aux0 1) (= weight0 0))))
(assert (and (>= aux1 0) (<= aux1 1)))
(assert (and (>= aux2 0) (<= aux2 1)))
(assert (and (>= aux3 0) (<= aux3 1)))
(assert (and (>= aux4 0) (<= aux4 1)))
(assert (or (or (exists (( p Int )) ( type_4458b037_16d1_425e_80f4_9a7d74b67043_A ( obj_47493956_b3c1_434b_b090_1ccaf0e75369 p )  ) ) (and (= aux1 1) true)) (and (= aux1 0) false)))
(assert (and (=> (= aux1 0) (= weight1 1)) (=> (= aux1 1) (= weight1 0))))
(assert (or (or (exists (( p Int )) (and ( type_66b391d0_bc8b_4d7b_b23e_bd379382a576_B ( obj_47493956_b3c1_434b_b090_1ccaf0e75369 p )  )  ( type_4458b037_16d1_425e_80f4_9a7d74b67043_A ( obj_47493956_b3c1_434b_b090_1ccaf0e75369 p )  ) )) (and (= aux2 1) true)) (and (= aux2 0) false)))
(assert (and (=> (= aux2 0) (= weight2 1)) (=> (= aux2 1) (= weight2 0))))
(assert (or (or (exists (( p Int )) (and ( type_80b186aa_708c_4eae_b503_320f9b499f24_C ( obj_47493956_b3c1_434b_b090_1ccaf0e75369 p )  )  ( type_4458b037_16d1_425e_80f4_9a7d74b67043_A ( obj_47493956_b3c1_434b_b090_1ccaf0e75369 p )  ) )) (and (= aux3 1) true)) (and (= aux3 0) false)))
(assert (and (=> (= aux3 0) (= weight3 1)) (=> (= aux3 1) (= weight3 0))))
(assert (or (or (exists (( p Int )) (and (and (and ( type_92d8b135_851e_46e3_8e99_0c2d562de001_D ( obj_47493956_b3c1_434b_b090_1ccaf0e75369 p )  )  ( type_4458b037_16d1_425e_80f4_9a7d74b67043_A ( obj_47493956_b3c1_434b_b090_1ccaf0e75369 p )  ) ) ( type_66b391d0_bc8b_4d7b_b23e_bd379382a576_B ( obj_47493956_b3c1_434b_b090_1ccaf0e75369 p )  ) ) ( type_80b186aa_708c_4eae_b503_320f9b499f24_C ( obj_47493956_b3c1_434b_b090_1ccaf0e75369 p )  ) )) (and (= aux4 1) true)) (and (= aux4 0) false)))
(assert (and (=> (= aux4 0) (= weight4 1)) (=> (= aux4 1) (= weight4 0))))
(assert (= (+ (+ (+ (+ weight0 weight1) weight2) weight3) weight4) 4))

(assert (not (and (and (and (and (= weight0 0) (= weight1 1)) (= weight2 1)) (= weight3 1)) (= weight4 1)) ))

(assert (not (and (and (and (and (= weight0 1) (= weight1 1)) (= weight2 1)) (= weight3 1)) (= weight4 0)) ))
